; benchmark generated from python API
(set-info :status unknown)
(declare-fun cell_1_3 () Int)
(declare-fun cell_1_4 () Int)
(declare-fun cell_2_1 () Int)
(declare-fun cell_3_7 () Int)
(declare-fun cell_4_6 () Int)
(declare-fun cell_5_9 () Int)
(declare-fun cell_6_2 () Int)
(declare-fun cell_7_5 () Int)
(declare-fun cell_8_8 () Int)
(declare-fun cell_9_3 () Int)
(declare-fun cell_1_1 () Int)
(declare-fun cell_3_1 () Int)
(declare-fun cell_4_1 () Int)
(declare-fun cell_5_1 () Int)
(declare-fun cell_6_1 () Int)
(declare-fun cell_7_1 () Int)
(declare-fun cell_8_1 () Int)
(declare-fun cell_9_1 () Int)
(declare-fun cell_1_2 () Int)
(declare-fun cell_2_2 () Int)
(declare-fun cell_3_2 () Int)
(declare-fun cell_4_2 () Int)
(declare-fun cell_5_2 () Int)
(declare-fun cell_7_2 () Int)
(declare-fun cell_8_2 () Int)
(declare-fun cell_9_2 () Int)
(declare-fun cell_2_3 () Int)
(declare-fun cell_3_3 () Int)
(declare-fun cell_4_3 () Int)
(declare-fun cell_5_3 () Int)
(declare-fun cell_6_3 () Int)
(declare-fun cell_7_3 () Int)
(declare-fun cell_8_3 () Int)
(declare-fun cell_2_4 () Int)
(declare-fun cell_3_4 () Int)
(declare-fun cell_4_4 () Int)
(declare-fun cell_5_4 () Int)
(declare-fun cell_6_4 () Int)
(declare-fun cell_7_4 () Int)
(declare-fun cell_8_4 () Int)
(declare-fun cell_9_4 () Int)
(declare-fun cell_1_5 () Int)
(declare-fun cell_2_5 () Int)
(declare-fun cell_3_5 () Int)
(declare-fun cell_4_5 () Int)
(declare-fun cell_5_5 () Int)
(declare-fun cell_6_5 () Int)
(declare-fun cell_8_5 () Int)
(declare-fun cell_9_5 () Int)
(declare-fun cell_1_6 () Int)
(declare-fun cell_2_6 () Int)
(declare-fun cell_3_6 () Int)
(declare-fun cell_5_6 () Int)
(declare-fun cell_6_6 () Int)
(declare-fun cell_7_6 () Int)
(declare-fun cell_8_6 () Int)
(declare-fun cell_9_6 () Int)
(declare-fun cell_1_7 () Int)
(declare-fun cell_2_7 () Int)
(declare-fun cell_4_7 () Int)
(declare-fun cell_5_7 () Int)
(declare-fun cell_6_7 () Int)
(declare-fun cell_7_7 () Int)
(declare-fun cell_8_7 () Int)
(declare-fun cell_9_7 () Int)
(declare-fun cell_1_8 () Int)
(declare-fun cell_2_8 () Int)
(declare-fun cell_3_8 () Int)
(declare-fun cell_4_8 () Int)
(declare-fun cell_5_8 () Int)
(declare-fun cell_6_8 () Int)
(declare-fun cell_7_8 () Int)
(declare-fun cell_9_8 () Int)
(declare-fun cell_1_9 () Int)
(declare-fun cell_2_9 () Int)
(declare-fun cell_3_9 () Int)
(declare-fun cell_4_9 () Int)
(declare-fun cell_6_9 () Int)
(declare-fun cell_7_9 () Int)
(declare-fun cell_8_9 () Int)
(declare-fun cell_9_9 () Int)
(assert
 (= cell_1_3 2))
(assert
 (= cell_1_4 1))
(assert
 (= cell_2_1 1))
(assert
 (= cell_3_7 1))
(assert
 (= cell_4_6 1))
(assert
 (= cell_5_9 1))
(assert
 (= cell_6_2 1))
(assert
 (= cell_7_5 1))
(assert
 (= cell_8_8 1))
(assert
 (= cell_9_3 1))
(assert
 (let (($x3325 (= cell_1_1 9)))
 (let (($x5064 (= cell_1_1 8)))
 (let (($x7288 (= cell_1_1 7)))
 (let (($x2023 (= cell_1_1 6)))
 (let (($x6331 (= cell_1_1 5)))
 (let (($x9010 (= cell_1_1 4)))
 (let (($x3783 (= cell_1_1 3)))
 (let (($x9933 (= cell_1_1 2)))
 (let (($x2545 (= cell_1_1 1)))
 (or $x2545 $x9933 $x3783 $x9010 $x6331 $x2023 $x7288 $x5064 $x3325)))))))))))
(assert
 (let (($x7802 (= cell_2_1 1)))
 (or $x7802 (= cell_2_1 2) (= cell_2_1 3) (= cell_2_1 4) (= cell_2_1 5) (= cell_2_1 6) (= cell_2_1 7) (= cell_2_1 8) (= cell_2_1 9))))
(assert
 (let (($x8190 (= cell_3_1 9)))
 (let (($x9624 (= cell_3_1 8)))
 (let (($x3088 (= cell_3_1 7)))
 (let (($x618 (= cell_3_1 6)))
 (let (($x2255 (= cell_3_1 5)))
 (let (($x6683 (= cell_3_1 4)))
 (let (($x9860 (= cell_3_1 3)))
 (let (($x6433 (= cell_3_1 2)))
 (let (($x463 (= cell_3_1 1)))
 (or $x463 $x6433 $x9860 $x6683 $x2255 $x618 $x3088 $x9624 $x8190)))))))))))
(assert
 (let (($x9740 (= cell_4_1 9)))
 (let (($x8315 (= cell_4_1 8)))
 (let (($x3327 (= cell_4_1 7)))
 (let (($x6249 (= cell_4_1 6)))
 (let (($x9957 (= cell_4_1 5)))
 (let (($x8839 (= cell_4_1 4)))
 (let (($x3034 (= cell_4_1 3)))
 (let (($x2065 (= cell_4_1 2)))
 (let (($x6528 (= cell_4_1 1)))
 (or $x6528 $x2065 $x3034 $x8839 $x9957 $x6249 $x3327 $x8315 $x9740)))))))))))
(assert
 (let (($x5409 (= cell_5_1 9)))
 (let (($x401 (= cell_5_1 8)))
 (let (($x3993 (= cell_5_1 7)))
 (let (($x3362 (= cell_5_1 6)))
 (let (($x6605 (= cell_5_1 5)))
 (let (($x1904 (= cell_5_1 4)))
 (let (($x8197 (= cell_5_1 3)))
 (let (($x4745 (= cell_5_1 2)))
 (let (($x9868 (= cell_5_1 1)))
 (or $x9868 $x4745 $x8197 $x1904 $x6605 $x3362 $x3993 $x401 $x5409)))))))))))
(assert
 (let (($x3184 (= cell_6_1 9)))
 (let (($x2514 (= cell_6_1 8)))
 (let (($x6136 (= cell_6_1 7)))
 (let (($x1251 (= cell_6_1 6)))
 (let (($x4371 (= cell_6_1 5)))
 (let (($x6143 (= cell_6_1 4)))
 (let (($x9434 (= cell_6_1 3)))
 (let (($x8272 (= cell_6_1 2)))
 (let (($x9276 (= cell_6_1 1)))
 (or $x9276 $x8272 $x9434 $x6143 $x4371 $x1251 $x6136 $x2514 $x3184)))))))))))
(assert
 (let (($x5428 (= cell_7_1 9)))
 (let (($x6291 (= cell_7_1 8)))
 (let (($x732 (= cell_7_1 7)))
 (let (($x1737 (= cell_7_1 6)))
 (let (($x4240 (= cell_7_1 5)))
 (let (($x2763 (= cell_7_1 4)))
 (let (($x2802 (= cell_7_1 3)))
 (let (($x1150 (= cell_7_1 2)))
 (let (($x6341 (= cell_7_1 1)))
 (or $x6341 $x1150 $x2802 $x2763 $x4240 $x1737 $x732 $x6291 $x5428)))))))))))
(assert
 (let (($x7807 (= cell_8_1 9)))
 (let (($x8676 (= cell_8_1 8)))
 (let (($x4962 (= cell_8_1 7)))
 (let (($x6267 (= cell_8_1 6)))
 (let (($x5863 (= cell_8_1 5)))
 (let (($x8215 (= cell_8_1 4)))
 (let (($x8434 (= cell_8_1 3)))
 (let (($x9046 (= cell_8_1 2)))
 (let (($x8166 (= cell_8_1 1)))
 (or $x8166 $x9046 $x8434 $x8215 $x5863 $x6267 $x4962 $x8676 $x7807)))))))))))
(assert
 (let (($x862 (= cell_9_1 9)))
 (let (($x7638 (= cell_9_1 8)))
 (let (($x2410 (= cell_9_1 7)))
 (let (($x4732 (= cell_9_1 6)))
 (let (($x10218 (= cell_9_1 5)))
 (let (($x5642 (= cell_9_1 4)))
 (let (($x1054 (= cell_9_1 3)))
 (let (($x7468 (= cell_9_1 2)))
 (let (($x3461 (= cell_9_1 1)))
 (or $x3461 $x7468 $x1054 $x5642 $x10218 $x4732 $x2410 $x7638 $x862)))))))))))
(assert
 (let (($x1260 (= cell_1_2 9)))
 (let (($x9378 (= cell_1_2 8)))
 (let (($x1638 (= cell_1_2 7)))
 (let (($x3657 (= cell_1_2 6)))
 (let (($x4911 (= cell_1_2 5)))
 (let (($x7246 (= cell_1_2 4)))
 (let (($x5496 (= cell_1_2 3)))
 (let (($x3669 (= cell_1_2 2)))
 (let (($x9971 (= cell_1_2 1)))
 (or $x9971 $x3669 $x5496 $x7246 $x4911 $x3657 $x1638 $x9378 $x1260)))))))))))
(assert
 (let (($x5100 (= cell_2_2 9)))
 (let (($x4591 (= cell_2_2 8)))
 (let (($x466 (= cell_2_2 7)))
 (let (($x7361 (= cell_2_2 6)))
 (let (($x7727 (= cell_2_2 5)))
 (let (($x933 (= cell_2_2 4)))
 (let (($x6346 (= cell_2_2 3)))
 (let (($x4841 (= cell_2_2 2)))
 (let (($x1711 (= cell_2_2 1)))
 (or $x1711 $x4841 $x6346 $x933 $x7727 $x7361 $x466 $x4591 $x5100)))))))))))
(assert
 (let (($x8715 (= cell_3_2 9)))
 (let (($x9241 (= cell_3_2 8)))
 (let (($x3901 (= cell_3_2 7)))
 (let (($x8768 (= cell_3_2 6)))
 (let (($x83 (= cell_3_2 5)))
 (let (($x7943 (= cell_3_2 4)))
 (let (($x1136 (= cell_3_2 3)))
 (let (($x4983 (= cell_3_2 2)))
 (let (($x612 (= cell_3_2 1)))
 (or $x612 $x4983 $x1136 $x7943 $x83 $x8768 $x3901 $x9241 $x8715)))))))))))
(assert
 (let (($x3684 (= cell_4_2 9)))
 (let (($x3311 (= cell_4_2 8)))
 (let (($x4811 (= cell_4_2 7)))
 (let (($x2357 (= cell_4_2 6)))
 (let (($x8684 (= cell_4_2 5)))
 (let (($x1834 (= cell_4_2 4)))
 (let (($x1196 (= cell_4_2 3)))
 (let (($x1645 (= cell_4_2 2)))
 (let (($x9025 (= cell_4_2 1)))
 (or $x9025 $x1645 $x1196 $x1834 $x8684 $x2357 $x4811 $x3311 $x3684)))))))))))
(assert
 (let (($x186 (= cell_5_2 9)))
 (let (($x2334 (= cell_5_2 8)))
 (let (($x9429 (= cell_5_2 7)))
 (let (($x5270 (= cell_5_2 6)))
 (let (($x5020 (= cell_5_2 5)))
 (let (($x8370 (= cell_5_2 4)))
 (let (($x3383 (= cell_5_2 3)))
 (let (($x959 (= cell_5_2 2)))
 (let (($x63 (= cell_5_2 1)))
 (or $x63 $x959 $x3383 $x8370 $x5020 $x5270 $x9429 $x2334 $x186)))))))))))
(assert
 (let (($x8897 (= cell_6_2 1)))
 (or $x8897 (= cell_6_2 2) (= cell_6_2 3) (= cell_6_2 4) (= cell_6_2 5) (= cell_6_2 6) (= cell_6_2 7) (= cell_6_2 8) (= cell_6_2 9))))
(assert
 (let (($x10211 (= cell_7_2 9)))
 (let (($x58 (= cell_7_2 8)))
 (let (($x6372 (= cell_7_2 7)))
 (let (($x816 (= cell_7_2 6)))
 (let (($x1364 (= cell_7_2 5)))
 (let (($x8741 (= cell_7_2 4)))
 (let (($x5859 (= cell_7_2 3)))
 (let (($x4058 (= cell_7_2 2)))
 (let (($x4436 (= cell_7_2 1)))
 (or $x4436 $x4058 $x5859 $x8741 $x1364 $x816 $x6372 $x58 $x10211)))))))))))
(assert
 (let (($x9947 (= cell_8_2 9)))
 (let (($x5222 (= cell_8_2 8)))
 (let (($x2352 (= cell_8_2 7)))
 (let (($x4007 (= cell_8_2 6)))
 (let (($x1266 (= cell_8_2 5)))
 (let (($x8362 (= cell_8_2 4)))
 (let (($x2185 (= cell_8_2 3)))
 (let (($x726 (= cell_8_2 2)))
 (let (($x109 (= cell_8_2 1)))
 (or $x109 $x726 $x2185 $x8362 $x1266 $x4007 $x2352 $x5222 $x9947)))))))))))
(assert
 (let (($x9754 (= cell_9_2 9)))
 (let (($x2382 (= cell_9_2 8)))
 (let (($x2877 (= cell_9_2 7)))
 (let (($x2636 (= cell_9_2 6)))
 (let (($x3814 (= cell_9_2 5)))
 (let (($x7557 (= cell_9_2 4)))
 (let (($x868 (= cell_9_2 3)))
 (let (($x3800 (= cell_9_2 2)))
 (let (($x4487 (= cell_9_2 1)))
 (or $x4487 $x3800 $x868 $x7557 $x3814 $x2636 $x2877 $x2382 $x9754)))))))))))
(assert
 (let (($x1986 (= cell_1_3 2)))
 (or (= cell_1_3 1) $x1986 (= cell_1_3 3) (= cell_1_3 4) (= cell_1_3 5) (= cell_1_3 6) (= cell_1_3 7) (= cell_1_3 8) (= cell_1_3 9))))
(assert
 (let (($x3936 (= cell_2_3 9)))
 (let (($x8114 (= cell_2_3 8)))
 (let (($x2673 (= cell_2_3 7)))
 (let (($x3501 (= cell_2_3 6)))
 (let (($x9236 (= cell_2_3 5)))
 (let (($x8155 (= cell_2_3 4)))
 (let (($x6253 (= cell_2_3 3)))
 (let (($x9840 (= cell_2_3 2)))
 (let (($x1249 (= cell_2_3 1)))
 (or $x1249 $x9840 $x6253 $x8155 $x9236 $x3501 $x2673 $x8114 $x3936)))))))))))
(assert
 (let (($x8052 (= cell_3_3 9)))
 (let (($x1067 (= cell_3_3 8)))
 (let (($x8220 (= cell_3_3 7)))
 (let (($x7396 (= cell_3_3 6)))
 (let (($x9541 (= cell_3_3 5)))
 (let (($x6355 (= cell_3_3 4)))
 (let (($x7618 (= cell_3_3 3)))
 (let (($x7230 (= cell_3_3 2)))
 (let (($x8146 (= cell_3_3 1)))
 (or $x8146 $x7230 $x7618 $x6355 $x9541 $x7396 $x8220 $x1067 $x8052)))))))))))
(assert
 (let (($x2841 (= cell_4_3 9)))
 (let (($x684 (= cell_4_3 8)))
 (let (($x9052 (= cell_4_3 7)))
 (let (($x6994 (= cell_4_3 6)))
 (let (($x4115 (= cell_4_3 5)))
 (let (($x6726 (= cell_4_3 4)))
 (let (($x8185 (= cell_4_3 3)))
 (let (($x936 (= cell_4_3 2)))
 (let (($x4820 (= cell_4_3 1)))
 (or $x4820 $x936 $x8185 $x6726 $x4115 $x6994 $x9052 $x684 $x2841)))))))))))
(assert
 (let (($x10120 (= cell_5_3 9)))
 (let (($x9839 (= cell_5_3 8)))
 (let (($x6100 (= cell_5_3 7)))
 (let (($x4387 (= cell_5_3 6)))
 (let (($x80 (= cell_5_3 5)))
 (let (($x4972 (= cell_5_3 4)))
 (let (($x1316 (= cell_5_3 3)))
 (let (($x3990 (= cell_5_3 2)))
 (let (($x4942 (= cell_5_3 1)))
 (or $x4942 $x3990 $x1316 $x4972 $x80 $x4387 $x6100 $x9839 $x10120)))))))))))
(assert
 (let (($x8725 (= cell_6_3 9)))
 (let (($x9981 (= cell_6_3 8)))
 (let (($x3181 (= cell_6_3 7)))
 (let (($x147 (= cell_6_3 6)))
 (let (($x9120 (= cell_6_3 5)))
 (let (($x9012 (= cell_6_3 4)))
 (let (($x8106 (= cell_6_3 3)))
 (let (($x6558 (= cell_6_3 2)))
 (let (($x6608 (= cell_6_3 1)))
 (or $x6608 $x6558 $x8106 $x9012 $x9120 $x147 $x3181 $x9981 $x8725)))))))))))
(assert
 (let (($x7958 (= cell_7_3 9)))
 (let (($x5401 (= cell_7_3 8)))
 (let (($x8695 (= cell_7_3 7)))
 (let (($x10111 (= cell_7_3 6)))
 (let (($x3408 (= cell_7_3 5)))
 (let (($x3396 (= cell_7_3 4)))
 (let (($x5607 (= cell_7_3 3)))
 (let (($x5965 (= cell_7_3 2)))
 (let (($x9388 (= cell_7_3 1)))
 (or $x9388 $x5965 $x5607 $x3396 $x3408 $x10111 $x8695 $x5401 $x7958)))))))))))
(assert
 (let (($x350 (= cell_8_3 9)))
 (let (($x1508 (= cell_8_3 8)))
 (let (($x942 (= cell_8_3 7)))
 (let (($x10203 (= cell_8_3 6)))
 (let (($x8838 (= cell_8_3 5)))
 (let (($x4556 (= cell_8_3 4)))
 (let (($x992 (= cell_8_3 3)))
 (let (($x3806 (= cell_8_3 2)))
 (let (($x8602 (= cell_8_3 1)))
 (or $x8602 $x3806 $x992 $x4556 $x8838 $x10203 $x942 $x1508 $x350)))))))))))
(assert
 (let (($x3405 (= cell_9_3 1)))
 (or $x3405 (= cell_9_3 2) (= cell_9_3 3) (= cell_9_3 4) (= cell_9_3 5) (= cell_9_3 6) (= cell_9_3 7) (= cell_9_3 8) (= cell_9_3 9))))
(assert
 (let (($x8030 (= cell_1_4 1)))
 (or $x8030 (= cell_1_4 2) (= cell_1_4 3) (= cell_1_4 4) (= cell_1_4 5) (= cell_1_4 6) (= cell_1_4 7) (= cell_1_4 8) (= cell_1_4 9))))
(assert
 (let (($x6833 (= cell_2_4 1)))
 (or $x6833 (= cell_2_4 2) (= cell_2_4 3) (= cell_2_4 4) (= cell_2_4 5) (= cell_2_4 6) (= cell_2_4 7) (= cell_2_4 8) (= cell_2_4 9))))
(assert
 (let (($x9869 (= cell_3_4 9)))
 (let (($x9994 (= cell_3_4 8)))
 (let (($x6748 (= cell_3_4 7)))
 (let (($x8443 (= cell_3_4 6)))
 (let (($x2155 (= cell_3_4 5)))
 (let (($x4271 (= cell_3_4 4)))
 (let (($x8511 (= cell_3_4 3)))
 (let (($x1235 (= cell_3_4 2)))
 (let (($x6616 (= cell_3_4 1)))
 (or $x6616 $x1235 $x8511 $x4271 $x2155 $x8443 $x6748 $x9994 $x9869)))))))))))
(assert
 (let (($x533 (= cell_4_4 9)))
 (let (($x7865 (= cell_4_4 8)))
 (let (($x6389 (= cell_4_4 7)))
 (let (($x7634 (= cell_4_4 6)))
 (let (($x7571 (= cell_4_4 5)))
 (let (($x243 (= cell_4_4 4)))
 (let (($x3404 (= cell_4_4 3)))
 (let (($x7121 (= cell_4_4 2)))
 (let (($x3956 (= cell_4_4 1)))
 (or $x3956 $x7121 $x3404 $x243 $x7571 $x7634 $x6389 $x7865 $x533)))))))))))
(assert
 (let (($x2796 (= cell_5_4 9)))
 (let (($x9694 (= cell_5_4 8)))
 (let (($x8259 (= cell_5_4 7)))
 (let (($x7075 (= cell_5_4 6)))
 (let (($x3488 (= cell_5_4 5)))
 (let (($x2715 (= cell_5_4 4)))
 (let (($x2764 (= cell_5_4 3)))
 (let (($x7514 (= cell_5_4 2)))
 (let (($x9587 (= cell_5_4 1)))
 (or $x9587 $x7514 $x2764 $x2715 $x3488 $x7075 $x8259 $x9694 $x2796)))))))))))
(assert
 (let (($x1993 (= cell_6_4 1)))
 (or $x1993 (= cell_6_4 2) (= cell_6_4 3) (= cell_6_4 4) (= cell_6_4 5) (= cell_6_4 6) (= cell_6_4 7) (= cell_6_4 8) (= cell_6_4 9))))
(assert
 (let (($x5274 (= cell_7_4 9)))
 (let (($x4476 (= cell_7_4 8)))
 (let (($x7073 (= cell_7_4 7)))
 (let (($x4360 (= cell_7_4 6)))
 (let (($x8198 (= cell_7_4 5)))
 (let (($x5344 (= cell_7_4 4)))
 (let (($x2780 (= cell_7_4 3)))
 (let (($x9055 (= cell_7_4 2)))
 (let (($x4272 (= cell_7_4 1)))
 (or $x4272 $x9055 $x2780 $x5344 $x8198 $x4360 $x7073 $x4476 $x5274)))))))))))
(assert
 (let (($x5148 (= cell_8_4 9)))
 (let (($x6728 (= cell_8_4 8)))
 (let (($x837 (= cell_8_4 7)))
 (let (($x6060 (= cell_8_4 6)))
 (let (($x4494 (= cell_8_4 5)))
 (let (($x3522 (= cell_8_4 4)))
 (let (($x7860 (= cell_8_4 3)))
 (let (($x8313 (= cell_8_4 2)))
 (let (($x5644 (= cell_8_4 1)))
 (or $x5644 $x8313 $x7860 $x3522 $x4494 $x6060 $x837 $x6728 $x5148)))))))))))
(assert
 (let (($x8074 (= cell_9_4 1)))
 (or $x8074 (= cell_9_4 2) (= cell_9_4 3) (= cell_9_4 4) (= cell_9_4 5) (= cell_9_4 6) (= cell_9_4 7) (= cell_9_4 8) (= cell_9_4 9))))
(assert
 (let (($x9586 (= cell_1_5 9)))
 (let (($x4623 (= cell_1_5 8)))
 (let (($x7048 (= cell_1_5 7)))
 (let (($x3161 (= cell_1_5 6)))
 (let (($x8795 (= cell_1_5 5)))
 (let (($x6826 (= cell_1_5 4)))
 (let (($x5207 (= cell_1_5 3)))
 (let (($x7959 (= cell_1_5 2)))
 (let (($x6392 (= cell_1_5 1)))
 (or $x6392 $x7959 $x5207 $x6826 $x8795 $x3161 $x7048 $x4623 $x9586)))))))))))
(assert
 (let (($x5157 (= cell_2_5 9)))
 (let (($x2387 (= cell_2_5 8)))
 (let (($x7420 (= cell_2_5 7)))
 (let (($x8652 (= cell_2_5 6)))
 (let (($x3928 (= cell_2_5 5)))
 (let (($x560 (= cell_2_5 4)))
 (let (($x6404 (= cell_2_5 3)))
 (let (($x3168 (= cell_2_5 2)))
 (let (($x3762 (= cell_2_5 1)))
 (or $x3762 $x3168 $x6404 $x560 $x3928 $x8652 $x7420 $x2387 $x5157)))))))))))
(assert
 (let (($x4037 (= cell_3_5 9)))
 (let (($x10031 (= cell_3_5 8)))
 (let (($x4328 (= cell_3_5 7)))
 (let (($x3525 (= cell_3_5 6)))
 (let (($x3693 (= cell_3_5 5)))
 (let (($x1406 (= cell_3_5 4)))
 (let (($x9455 (= cell_3_5 3)))
 (let (($x3145 (= cell_3_5 2)))
 (let (($x8034 (= cell_3_5 1)))
 (or $x8034 $x3145 $x9455 $x1406 $x3693 $x3525 $x4328 $x10031 $x4037)))))))))))
(assert
 (let (($x2467 (= cell_4_5 9)))
 (let (($x8573 (= cell_4_5 8)))
 (let (($x7845 (= cell_4_5 7)))
 (let (($x2145 (= cell_4_5 6)))
 (let (($x1831 (= cell_4_5 5)))
 (let (($x2131 (= cell_4_5 4)))
 (let (($x1549 (= cell_4_5 3)))
 (let (($x6158 (= cell_4_5 2)))
 (let (($x3412 (= cell_4_5 1)))
 (or $x3412 $x6158 $x1549 $x2131 $x1831 $x2145 $x7845 $x8573 $x2467)))))))))))
(assert
 (let (($x9758 (= cell_5_5 9)))
 (let (($x8283 (= cell_5_5 8)))
 (let (($x9914 (= cell_5_5 7)))
 (let (($x6157 (= cell_5_5 6)))
 (let (($x8494 (= cell_5_5 5)))
 (let (($x1695 (= cell_5_5 4)))
 (let (($x7658 (= cell_5_5 3)))
 (let (($x5421 (= cell_5_5 2)))
 (let (($x8862 (= cell_5_5 1)))
 (or $x8862 $x5421 $x7658 $x1695 $x8494 $x6157 $x9914 $x8283 $x9758)))))))))))
(assert
 (let (($x9714 (= cell_6_5 9)))
 (let (($x1950 (= cell_6_5 8)))
 (let (($x3569 (= cell_6_5 7)))
 (let (($x192 (= cell_6_5 6)))
 (let (($x8107 (= cell_6_5 5)))
 (let (($x7771 (= cell_6_5 4)))
 (let (($x2781 (= cell_6_5 3)))
 (let (($x617 (= cell_6_5 2)))
 (let (($x7329 (= cell_6_5 1)))
 (or $x7329 $x617 $x2781 $x7771 $x8107 $x192 $x3569 $x1950 $x9714)))))))))))
(assert
 (let (($x7325 (= cell_7_5 1)))
 (or $x7325 (= cell_7_5 2) (= cell_7_5 3) (= cell_7_5 4) (= cell_7_5 5) (= cell_7_5 6) (= cell_7_5 7) (= cell_7_5 8) (= cell_7_5 9))))
(assert
 (let (($x1543 (= cell_8_5 9)))
 (let (($x5385 (= cell_8_5 8)))
 (let (($x6852 (= cell_8_5 7)))
 (let (($x5181 (= cell_8_5 6)))
 (let (($x3131 (= cell_8_5 5)))
 (let (($x6024 (= cell_8_5 4)))
 (let (($x6927 (= cell_8_5 3)))
 (let (($x5802 (= cell_8_5 2)))
 (let (($x3499 (= cell_8_5 1)))
 (or $x3499 $x5802 $x6927 $x6024 $x3131 $x5181 $x6852 $x5385 $x1543)))))))))))
(assert
 (let (($x3180 (= cell_9_5 1)))
 (or $x3180 (= cell_9_5 2) (= cell_9_5 3) (= cell_9_5 4) (= cell_9_5 5) (= cell_9_5 6) (= cell_9_5 7) (= cell_9_5 8) (= cell_9_5 9))))
(assert
 (let (($x6796 (= cell_1_6 9)))
 (let (($x1028 (= cell_1_6 8)))
 (let (($x4726 (= cell_1_6 7)))
 (let (($x4565 (= cell_1_6 6)))
 (let (($x5566 (= cell_1_6 5)))
 (let (($x9315 (= cell_1_6 4)))
 (let (($x9293 (= cell_1_6 3)))
 (let (($x9215 (= cell_1_6 2)))
 (let (($x4248 (= cell_1_6 1)))
 (or $x4248 $x9215 $x9293 $x9315 $x5566 $x4565 $x4726 $x1028 $x6796)))))))))))
(assert
 (let (($x3937 (= cell_2_6 9)))
 (let (($x7780 (= cell_2_6 8)))
 (let (($x2977 (= cell_2_6 7)))
 (let (($x8697 (= cell_2_6 6)))
 (let (($x7556 (= cell_2_6 5)))
 (let (($x6363 (= cell_2_6 4)))
 (let (($x3105 (= cell_2_6 3)))
 (let (($x237 (= cell_2_6 2)))
 (let (($x9155 (= cell_2_6 1)))
 (or $x9155 $x237 $x3105 $x6363 $x7556 $x8697 $x2977 $x7780 $x3937)))))))))))
(assert
 (let (($x9801 (= cell_3_6 9)))
 (let (($x9835 (= cell_3_6 8)))
 (let (($x9561 (= cell_3_6 7)))
 (let (($x5433 (= cell_3_6 6)))
 (let (($x3464 (= cell_3_6 5)))
 (let (($x2235 (= cell_3_6 4)))
 (let (($x6410 (= cell_3_6 3)))
 (let (($x4495 (= cell_3_6 2)))
 (let (($x3004 (= cell_3_6 1)))
 (or $x3004 $x4495 $x6410 $x2235 $x3464 $x5433 $x9561 $x9835 $x9801)))))))))))
(assert
 (let (($x4877 (= cell_4_6 1)))
 (or $x4877 (= cell_4_6 2) (= cell_4_6 3) (= cell_4_6 4) (= cell_4_6 5) (= cell_4_6 6) (= cell_4_6 7) (= cell_4_6 8) (= cell_4_6 9))))
(assert
 (let (($x892 (= cell_5_6 9)))
 (let (($x5592 (= cell_5_6 8)))
 (let (($x5982 (= cell_5_6 7)))
 (let (($x102 (= cell_5_6 6)))
 (let (($x2531 (= cell_5_6 5)))
 (let (($x1113 (= cell_5_6 4)))
 (let (($x9752 (= cell_5_6 3)))
 (let (($x7929 (= cell_5_6 2)))
 (let (($x2782 (= cell_5_6 1)))
 (or $x2782 $x7929 $x9752 $x1113 $x2531 $x102 $x5982 $x5592 $x892)))))))))))
(assert
 (let (($x4722 (= cell_6_6 1)))
 (or $x4722 (= cell_6_6 2) (= cell_6_6 3) (= cell_6_6 4) (= cell_6_6 5) (= cell_6_6 6) (= cell_6_6 7) (= cell_6_6 8) (= cell_6_6 9))))
(assert
 (let (($x2364 (= cell_7_6 1)))
 (or $x2364 (= cell_7_6 2) (= cell_7_6 3) (= cell_7_6 4) (= cell_7_6 5) (= cell_7_6 6) (= cell_7_6 7) (= cell_7_6 8) (= cell_7_6 9))))
(assert
 (let (($x2431 (= cell_8_6 9)))
 (let (($x602 (= cell_8_6 8)))
 (let (($x10073 (= cell_8_6 7)))
 (let (($x7931 (= cell_8_6 6)))
 (let (($x4448 (= cell_8_6 5)))
 (let (($x872 (= cell_8_6 4)))
 (let (($x3957 (= cell_8_6 3)))
 (let (($x4705 (= cell_8_6 2)))
 (let (($x7400 (= cell_8_6 1)))
 (or $x7400 $x4705 $x3957 $x872 $x4448 $x7931 $x10073 $x602 $x2431)))))))))))
(assert
 (let (($x2047 (= cell_9_6 1)))
 (or $x2047 (= cell_9_6 2) (= cell_9_6 3) (= cell_9_6 4) (= cell_9_6 5) (= cell_9_6 6) (= cell_9_6 7) (= cell_9_6 8) (= cell_9_6 9))))
(assert
 (let (($x7908 (= cell_1_7 9)))
 (let (($x3284 (= cell_1_7 8)))
 (let (($x10070 (= cell_1_7 7)))
 (let (($x7138 (= cell_1_7 6)))
 (let (($x7916 (= cell_1_7 5)))
 (let (($x5822 (= cell_1_7 4)))
 (let (($x2518 (= cell_1_7 3)))
 (let (($x4947 (= cell_1_7 2)))
 (let (($x9537 (= cell_1_7 1)))
 (or $x9537 $x4947 $x2518 $x5822 $x7916 $x7138 $x10070 $x3284 $x7908)))))))))))
(assert
 (let (($x10093 (= cell_2_7 9)))
 (let (($x7030 (= cell_2_7 8)))
 (let (($x135 (= cell_2_7 7)))
 (let (($x7459 (= cell_2_7 6)))
 (let (($x6478 (= cell_2_7 5)))
 (let (($x8096 (= cell_2_7 4)))
 (let (($x3638 (= cell_2_7 3)))
 (let (($x4847 (= cell_2_7 2)))
 (let (($x4130 (= cell_2_7 1)))
 (or $x4130 $x4847 $x3638 $x8096 $x6478 $x7459 $x135 $x7030 $x10093)))))))))))
(assert
 (let (($x956 (= cell_3_7 1)))
 (or $x956 (= cell_3_7 2) (= cell_3_7 3) (= cell_3_7 4) (= cell_3_7 5) (= cell_3_7 6) (= cell_3_7 7) (= cell_3_7 8) (= cell_3_7 9))))
(assert
 (let (($x4416 (= cell_4_7 9)))
 (let (($x3176 (= cell_4_7 8)))
 (let (($x8320 (= cell_4_7 7)))
 (let (($x297 (= cell_4_7 6)))
 (let (($x4653 (= cell_4_7 5)))
 (let (($x8671 (= cell_4_7 4)))
 (let (($x5998 (= cell_4_7 3)))
 (let (($x7982 (= cell_4_7 2)))
 (let (($x1546 (= cell_4_7 1)))
 (or $x1546 $x7982 $x5998 $x8671 $x4653 $x297 $x8320 $x3176 $x4416)))))))))))
(assert
 (let (($x1982 (= cell_5_7 9)))
 (let (($x4134 (= cell_5_7 8)))
 (let (($x8415 (= cell_5_7 7)))
 (let (($x395 (= cell_5_7 6)))
 (let (($x9906 (= cell_5_7 5)))
 (let (($x1256 (= cell_5_7 4)))
 (let (($x6303 (= cell_5_7 3)))
 (let (($x8588 (= cell_5_7 2)))
 (let (($x3468 (= cell_5_7 1)))
 (or $x3468 $x8588 $x6303 $x1256 $x9906 $x395 $x8415 $x4134 $x1982)))))))))))
(assert
 (let (($x7327 (= cell_6_7 1)))
 (or $x7327 (= cell_6_7 2) (= cell_6_7 3) (= cell_6_7 4) (= cell_6_7 5) (= cell_6_7 6) (= cell_6_7 7) (= cell_6_7 8) (= cell_6_7 9))))
(assert
 (let (($x2885 (= cell_7_7 9)))
 (let (($x9614 (= cell_7_7 8)))
 (let (($x2397 (= cell_7_7 7)))
 (let (($x3909 (= cell_7_7 6)))
 (let (($x2863 (= cell_7_7 5)))
 (let (($x3498 (= cell_7_7 4)))
 (let (($x4522 (= cell_7_7 3)))
 (let (($x9523 (= cell_7_7 2)))
 (let (($x5017 (= cell_7_7 1)))
 (or $x5017 $x9523 $x4522 $x3498 $x2863 $x3909 $x2397 $x9614 $x2885)))))))))))
(assert
 (let (($x223 (= cell_8_7 9)))
 (let (($x6897 (= cell_8_7 8)))
 (let (($x8491 (= cell_8_7 7)))
 (let (($x7375 (= cell_8_7 6)))
 (let (($x1172 (= cell_8_7 5)))
 (let (($x1448 (= cell_8_7 4)))
 (let (($x9945 (= cell_8_7 3)))
 (let (($x9797 (= cell_8_7 2)))
 (let (($x5323 (= cell_8_7 1)))
 (or $x5323 $x9797 $x9945 $x1448 $x1172 $x7375 $x8491 $x6897 $x223)))))))))))
(assert
 (let (($x5096 (= cell_9_7 1)))
 (or $x5096 (= cell_9_7 2) (= cell_9_7 3) (= cell_9_7 4) (= cell_9_7 5) (= cell_9_7 6) (= cell_9_7 7) (= cell_9_7 8) (= cell_9_7 9))))
(assert
 (let (($x6330 (= cell_1_8 9)))
 (let (($x7961 (= cell_1_8 8)))
 (let (($x1450 (= cell_1_8 7)))
 (let (($x6973 (= cell_1_8 6)))
 (let (($x7300 (= cell_1_8 5)))
 (let (($x661 (= cell_1_8 4)))
 (let (($x10160 (= cell_1_8 3)))
 (let (($x9337 (= cell_1_8 2)))
 (let (($x6205 (= cell_1_8 1)))
 (or $x6205 $x9337 $x10160 $x661 $x7300 $x6973 $x1450 $x7961 $x6330)))))))))))
(assert
 (let (($x2175 (= cell_2_8 9)))
 (let (($x6059 (= cell_2_8 8)))
 (let (($x397 (= cell_2_8 7)))
 (let (($x6711 (= cell_2_8 6)))
 (let (($x1036 (= cell_2_8 5)))
 (let (($x3536 (= cell_2_8 4)))
 (let (($x8766 (= cell_2_8 3)))
 (let (($x6912 (= cell_2_8 2)))
 (let (($x1750 (= cell_2_8 1)))
 (or $x1750 $x6912 $x8766 $x3536 $x1036 $x6711 $x397 $x6059 $x2175)))))))))))
(assert
 (let (($x7380 (= cell_3_8 9)))
 (let (($x8857 (= cell_3_8 8)))
 (let (($x7016 (= cell_3_8 7)))
 (let (($x2406 (= cell_3_8 6)))
 (let (($x5235 (= cell_3_8 5)))
 (let (($x7703 (= cell_3_8 4)))
 (let (($x5473 (= cell_3_8 3)))
 (let (($x2978 (= cell_3_8 2)))
 (let (($x4252 (= cell_3_8 1)))
 (or $x4252 $x2978 $x5473 $x7703 $x5235 $x2406 $x7016 $x8857 $x7380)))))))))))
(assert
 (let (($x757 (= cell_4_8 9)))
 (let (($x8819 (= cell_4_8 8)))
 (let (($x7463 (= cell_4_8 7)))
 (let (($x5955 (= cell_4_8 6)))
 (let (($x2011 (= cell_4_8 5)))
 (let (($x3190 (= cell_4_8 4)))
 (let (($x5335 (= cell_4_8 3)))
 (let (($x8947 (= cell_4_8 2)))
 (let (($x10060 (= cell_4_8 1)))
 (or $x10060 $x8947 $x5335 $x3190 $x2011 $x5955 $x7463 $x8819 $x757)))))))))))
(assert
 (let (($x5124 (= cell_5_8 9)))
 (let (($x3351 (= cell_5_8 8)))
 (let (($x6040 (= cell_5_8 7)))
 (let (($x1872 (= cell_5_8 6)))
 (let (($x6007 (= cell_5_8 5)))
 (let (($x2873 (= cell_5_8 4)))
 (let (($x6232 (= cell_5_8 3)))
 (let (($x8680 (= cell_5_8 2)))
 (let (($x5540 (= cell_5_8 1)))
 (or $x5540 $x8680 $x6232 $x2873 $x6007 $x1872 $x6040 $x3351 $x5124)))))))))))
(assert
 (let (($x8218 (= cell_6_8 9)))
 (let (($x5878 (= cell_6_8 8)))
 (let (($x169 (= cell_6_8 7)))
 (let (($x10244 (= cell_6_8 6)))
 (let (($x8605 (= cell_6_8 5)))
 (let (($x9302 (= cell_6_8 4)))
 (let (($x6366 (= cell_6_8 3)))
 (let (($x7114 (= cell_6_8 2)))
 (let (($x856 (= cell_6_8 1)))
 (or $x856 $x7114 $x6366 $x9302 $x8605 $x10244 $x169 $x5878 $x8218)))))))))))
(assert
 (let (($x5920 (= cell_7_8 9)))
 (let (($x8930 (= cell_7_8 8)))
 (let (($x1751 (= cell_7_8 7)))
 (let (($x3595 (= cell_7_8 6)))
 (let (($x2798 (= cell_7_8 5)))
 (let (($x8869 (= cell_7_8 4)))
 (let (($x5683 (= cell_7_8 3)))
 (let (($x4731 (= cell_7_8 2)))
 (let (($x7314 (= cell_7_8 1)))
 (or $x7314 $x4731 $x5683 $x8869 $x2798 $x3595 $x1751 $x8930 $x5920)))))))))))
(assert
 (let (($x8051 (= cell_8_8 1)))
 (or $x8051 (= cell_8_8 2) (= cell_8_8 3) (= cell_8_8 4) (= cell_8_8 5) (= cell_8_8 6) (= cell_8_8 7) (= cell_8_8 8) (= cell_8_8 9))))
(assert
 (let (($x1159 (= cell_9_8 1)))
 (or $x1159 (= cell_9_8 2) (= cell_9_8 3) (= cell_9_8 4) (= cell_9_8 5) (= cell_9_8 6) (= cell_9_8 7) (= cell_9_8 8) (= cell_9_8 9))))
(assert
 (let (($x5481 (= cell_1_9 9)))
 (let (($x3737 (= cell_1_9 8)))
 (let (($x6441 (= cell_1_9 7)))
 (let (($x2677 (= cell_1_9 6)))
 (let (($x7268 (= cell_1_9 5)))
 (let (($x2396 (= cell_1_9 4)))
 (let (($x4375 (= cell_1_9 3)))
 (let (($x630 (= cell_1_9 2)))
 (let (($x5384 (= cell_1_9 1)))
 (or $x5384 $x630 $x4375 $x2396 $x7268 $x2677 $x6441 $x3737 $x5481)))))))))))
(assert
 (let (($x859 (= cell_2_9 9)))
 (let (($x6708 (= cell_2_9 8)))
 (let (($x9696 (= cell_2_9 7)))
 (let (($x9098 (= cell_2_9 6)))
 (let (($x8926 (= cell_2_9 5)))
 (let (($x6282 (= cell_2_9 4)))
 (let (($x17 (= cell_2_9 3)))
 (let (($x6798 (= cell_2_9 2)))
 (let (($x4743 (= cell_2_9 1)))
 (or $x4743 $x6798 $x17 $x6282 $x8926 $x9098 $x9696 $x6708 $x859)))))))))))
(assert
 (let (($x3283 (= cell_3_9 9)))
 (let (($x4500 (= cell_3_9 8)))
 (let (($x7437 (= cell_3_9 7)))
 (let (($x1319 (= cell_3_9 6)))
 (let (($x6482 (= cell_3_9 5)))
 (let (($x4407 (= cell_3_9 4)))
 (let (($x3439 (= cell_3_9 3)))
 (let (($x6577 (= cell_3_9 2)))
 (let (($x5943 (= cell_3_9 1)))
 (or $x5943 $x6577 $x3439 $x4407 $x6482 $x1319 $x7437 $x4500 $x3283)))))))))))
(assert
 (let (($x7651 (= cell_4_9 9)))
 (let (($x5549 (= cell_4_9 8)))
 (let (($x4084 (= cell_4_9 7)))
 (let (($x1351 (= cell_4_9 6)))
 (let (($x2996 (= cell_4_9 5)))
 (let (($x8007 (= cell_4_9 4)))
 (let (($x7266 (= cell_4_9 3)))
 (let (($x5075 (= cell_4_9 2)))
 (let (($x852 (= cell_4_9 1)))
 (or $x852 $x5075 $x7266 $x8007 $x2996 $x1351 $x4084 $x5549 $x7651)))))))))))
(assert
 (let (($x6483 (= cell_5_9 1)))
 (or $x6483 (= cell_5_9 2) (= cell_5_9 3) (= cell_5_9 4) (= cell_5_9 5) (= cell_5_9 6) (= cell_5_9 7) (= cell_5_9 8) (= cell_5_9 9))))
(assert
 (let (($x7123 (= cell_6_9 1)))
 (or $x7123 (= cell_6_9 2) (= cell_6_9 3) (= cell_6_9 4) (= cell_6_9 5) (= cell_6_9 6) (= cell_6_9 7) (= cell_6_9 8) (= cell_6_9 9))))
(assert
 (let (($x443 (= cell_7_9 9)))
 (let (($x5032 (= cell_7_9 8)))
 (let (($x1072 (= cell_7_9 7)))
 (let (($x4409 (= cell_7_9 6)))
 (let (($x4720 (= cell_7_9 5)))
 (let (($x7622 (= cell_7_9 4)))
 (let (($x5425 (= cell_7_9 3)))
 (let (($x9168 (= cell_7_9 2)))
 (let (($x4611 (= cell_7_9 1)))
 (or $x4611 $x9168 $x5425 $x7622 $x4720 $x4409 $x1072 $x5032 $x443)))))))))))
(assert
 (let (($x3136 (= cell_8_9 1)))
 (or $x3136 (= cell_8_9 2) (= cell_8_9 3) (= cell_8_9 4) (= cell_8_9 5) (= cell_8_9 6) (= cell_8_9 7) (= cell_8_9 8) (= cell_8_9 9))))
(assert
 (let (($x4548 (= cell_9_9 1)))
 (or $x4548 (= cell_9_9 2) (= cell_9_9 3) (= cell_9_9 4) (= cell_9_9 5) (= cell_9_9 6) (= cell_9_9 7) (= cell_9_9 8) (= cell_9_9 9))))
(assert
 (and (distinct cell_1_1 cell_1_2 cell_1_3 cell_1_4 cell_1_5 cell_1_6 cell_1_7 cell_1_8 cell_1_9) true))
(assert
 (and (distinct cell_2_1 cell_2_2 cell_2_3 cell_2_4 cell_2_5 cell_2_6 cell_2_7 cell_2_8 cell_2_9) true))
(assert
 (and (distinct cell_3_1 cell_3_2 cell_3_3 cell_3_4 cell_3_5 cell_3_6 cell_3_7 cell_3_8 cell_3_9) true))
(assert
 (and (distinct cell_4_1 cell_4_2 cell_4_3 cell_4_4 cell_4_5 cell_4_6 cell_4_7 cell_4_8 cell_4_9) true))
(assert
 (and (distinct cell_5_1 cell_5_2 cell_5_3 cell_5_4 cell_5_5 cell_5_6 cell_5_7 cell_5_8 cell_5_9) true))
(assert
 (and (distinct cell_6_1 cell_6_2 cell_6_3 cell_6_4 cell_6_5 cell_6_6 cell_6_7 cell_6_8 cell_6_9) true))
(assert
 (and (distinct cell_7_1 cell_7_2 cell_7_3 cell_7_4 cell_7_5 cell_7_6 cell_7_7 cell_7_8 cell_7_9) true))
(assert
 (and (distinct cell_8_1 cell_8_2 cell_8_3 cell_8_4 cell_8_5 cell_8_6 cell_8_7 cell_8_8 cell_8_9) true))
(assert
 (and (distinct cell_9_1 cell_9_2 cell_9_3 cell_9_4 cell_9_5 cell_9_6 cell_9_7 cell_9_8 cell_9_9) true))
(assert
 (and (distinct cell_1_1 cell_2_1 cell_3_1 cell_4_1 cell_5_1 cell_6_1 cell_7_1 cell_8_1 cell_9_1) true))
(assert
 (and (distinct cell_1_2 cell_2_2 cell_3_2 cell_4_2 cell_5_2 cell_6_2 cell_7_2 cell_8_2 cell_9_2) true))
(assert
 (and (distinct cell_1_3 cell_2_3 cell_3_3 cell_4_3 cell_5_3 cell_6_3 cell_7_3 cell_8_3 cell_9_3) true))
(assert
 (and (distinct cell_1_4 cell_2_4 cell_3_4 cell_4_4 cell_5_4 cell_6_4 cell_7_4 cell_8_4 cell_9_4) true))
(assert
 (and (distinct cell_1_5 cell_2_5 cell_3_5 cell_4_5 cell_5_5 cell_6_5 cell_7_5 cell_8_5 cell_9_5) true))
(assert
 (and (distinct cell_1_6 cell_2_6 cell_3_6 cell_4_6 cell_5_6 cell_6_6 cell_7_6 cell_8_6 cell_9_6) true))
(assert
 (and (distinct cell_1_7 cell_2_7 cell_3_7 cell_4_7 cell_5_7 cell_6_7 cell_7_7 cell_8_7 cell_9_7) true))
(assert
 (and (distinct cell_1_8 cell_2_8 cell_3_8 cell_4_8 cell_5_8 cell_6_8 cell_7_8 cell_8_8 cell_9_8) true))
(assert
 (and (distinct cell_1_9 cell_2_9 cell_3_9 cell_4_9 cell_5_9 cell_6_9 cell_7_9 cell_8_9 cell_9_9) true))
(assert
 (and (distinct cell_1_1 cell_1_2 cell_1_3 cell_2_1 cell_2_2 cell_2_3 cell_3_1 cell_3_2 cell_3_3) true))
(assert
 (and (distinct cell_1_4 cell_1_5 cell_1_6 cell_2_4 cell_2_5 cell_2_6 cell_3_4 cell_3_5 cell_3_6) true))
(assert
 (and (distinct cell_1_7 cell_1_8 cell_1_9 cell_2_7 cell_2_8 cell_2_9 cell_3_7 cell_3_8 cell_3_9) true))
(assert
 (and (distinct cell_4_1 cell_4_2 cell_4_3 cell_5_1 cell_5_2 cell_5_3 cell_6_1 cell_6_2 cell_6_3) true))
(assert
 (and (distinct cell_4_4 cell_4_5 cell_4_6 cell_5_4 cell_5_5 cell_5_6 cell_6_4 cell_6_5 cell_6_6) true))
(assert
 (and (distinct cell_4_7 cell_4_8 cell_4_9 cell_5_7 cell_5_8 cell_5_9 cell_6_7 cell_6_8 cell_6_9) true))
(assert
 (and (distinct cell_7_1 cell_7_2 cell_7_3 cell_8_1 cell_8_2 cell_8_3 cell_9_1 cell_9_2 cell_9_3) true))
(assert
 (and (distinct cell_7_4 cell_7_5 cell_7_6 cell_8_4 cell_8_5 cell_8_6 cell_9_4 cell_9_5 cell_9_6) true))
(assert
 (and (distinct cell_7_7 cell_7_8 cell_7_9 cell_8_7 cell_8_8 cell_8_9 cell_9_7 cell_9_8 cell_9_9) true))
(assert
 (let (($x2755 (and (distinct cell_5_9 cell_6_8 cell_7_7 cell_8_6) true)))
 (let (($x6072 (and (distinct cell_2_9 cell_3_8 cell_4_7 cell_5_6 cell_6_5 cell_7_4 cell_8_3 cell_9_2) true)))
 (let (($x6692 (and (distinct cell_1_8 cell_2_7 cell_3_6 cell_4_5 cell_5_4 cell_6_3 cell_7_2 cell_8_1) true)))
 (let (($x1673 (and (distinct cell_1_5 cell_2_4 cell_3_3 cell_4_2) true)))
 (let (($x5313 (and (distinct cell_5_1 cell_6_2 cell_7_3 cell_8_4) true)))
 (let (($x104 (and (distinct cell_2_1 cell_3_2 cell_4_3 cell_5_4 cell_6_5 cell_7_6 cell_8_7 cell_9_8) true)))
 (let (($x3419 (and (distinct cell_1_2 cell_2_3 cell_3_4 cell_4_5 cell_5_6 cell_6_7 cell_7_8 cell_8_9) true)))
 (let (($x6858 (and (distinct cell_1_5 cell_2_6 cell_3_7 cell_4_8) true)))
 (and $x6858 $x3419 $x104 $x5313 $x1673 $x6692 $x6072 $x2755))))))))))
(assert
 (= cell_2_5 2))
(check-sat)
